NAME : Das88-8-f.20742.tour
COMMENT : Length = 20742
COMMENT : Found by LKH-3 [Keld Helsgaun] Tue Dec 17 14:06:58 2024
TYPE : TOUR
DIMENSION : 104
TOUR_SECTION
1
78
96
87
94
28
69
71
9
97
2
17
41
30
46
82
34
84
70
93
73
29
89
38
76
86
49
47
22
19
54
10
40
98
3
11
99
4
12
35
18
37
51
58
75
39
55
65
95
85
50
59
64
88
42
77
66
25
72
56
21
52
92
81
24
31
48
57
83
91
20
90
27
62
45
61
43
79
23
53
74
67
44
33
26
68
63
32
60
100
5
13
80
101
6
14
102
7
15
103
8
16
36
104
-1
EOF
